
Log started (V11.0.0) Wed May 14 14:43:49 2008

Tried aggregator 1 time.
Reduced MIP has 130 rows, 3001 columns, and 6030 nonzeros.
Presolve time =    0.02 sec.
Clique table members: 100.
MIP emphasis: balance optimality and feasibility.
MIP search method: dynamic search.
Parallel mode: none, using 1 thread.
Root relaxation solution time =    0.09 sec.

        Nodes                                         Cuts/
   Node  Left     Objective  IInf  Best Integer     Best Node    ItCnt     Gap

*     0+    0                        10991.0000      334.3650      378   96.96%
*     0+    0                          403.0000      334.3650      378   17.03%
      0     0      336.3610    55      403.0000      Fract: 6      448   16.54%
*     0+    0                          402.0000      336.3610      448   16.33%
      0     0      355.0783    65      402.0000      Cuts: 30     1599   11.67%
      0     0      356.4425    81      402.0000      Cuts: 24     1725   11.33%
      0     0      356.4425    81      402.0000      Cuts: 21     1806   11.33%
      0     0      357.1999    93      402.0000      Cuts: 25     1867   11.14%
      0     0      357.1999    96      402.0000      Cuts: 16     1917   11.14%
*     0+    0                          401.0000      357.1999     1917   10.92%
*     0+    0                          400.0000      357.1999     1917   10.70%
      0     2      358.0000    82      400.0000      357.1999     1917   10.70%
    100    82      358.0000    54      400.0000      358.0000     8221   10.50%
    200   163      360.0000    46      400.0000      358.0000    16703   10.50%
    300   231      360.0000    43      400.0000      358.0000    22630   10.50%
    400   301      360.9045    50      400.0000      358.0000    28078   10.50%

Cover cuts applied:  32
Mixed integer rounding cuts applied:  15
Gomory fractional cuts applied:  3

Solution pool: 5 solutions saved.

MIP - Integer optimal solution:  Objective = 4.0000000000e+002
Solution time =   11.83 sec.  Iterations = 35817  Nodes = 491 (357)


Incumbent solution
Variable Name           Solution Value
Cmax                        400.000000
X_1_9                         1.000000
X_2_4                         1.000000
X_3_17                        1.000000
X_4_8                         1.000000
X_5_9                         1.000000
X_6_27                        1.000000
X_7_20                        1.000000
X_8_7                         1.000000
X_9_27                        1.000000
X_10_29                       1.000000
X_11_1                        1.000000
X_12_28                       1.000000
X_13_18                       1.000000
X_14_4                        1.000000
X_15_2                        1.000000
X_16_3                        1.000000
X_17_11                       1.000000
X_18_16                       1.000000
X_19_19                       1.000000
X_20_17                       1.000000
X_21_5                        1.000000
X_22_25                       1.000000
X_23_30                       1.000000
X_24_7                        1.000000
X_25_15                       1.000000
X_26_6                        1.000000
X_27_20                       1.000000
X_28_10                       1.000000
X_29_23                       1.000000
X_30_13                       1.000000
X_31_16                       1.000000
X_32_26                       1.000000
X_33_1                        1.000000
X_34_22                       1.000000
X_35_9                        1.000000
X_36_11                       1.000000
X_37_17                       1.000000
X_38_22                       1.000000
X_39_10                       1.000000
X_40_10                       1.000000
X_41_2                        1.000000
X_42_14                       1.000000
X_43_19                       1.000000
X_44_15                       1.000000
X_45_26                       1.000000
X_46_24                       1.000000
X_47_27                       1.000000
X_48_29                       1.000000
X_49_14                       1.000000
X_50_7                        1.000000
X_51_5                        1.000000
X_52_2                        1.000000
X_53_12                       1.000000
X_54_25                       1.000000
X_55_5                        1.000000
X_56_6                        1.000000
X_57_13                       1.000000
X_58_14                       1.000000
X_59_30                       1.000000
X_60_18                       1.000000
X_61_20                       1.000000
X_62_4                        1.000000
X_63_22                       1.000000
X_64_24                       1.000000
X_65_21                       1.000000
X_66_17                       1.000000
X_67_10                       1.000000
X_68_21                       1.000000
X_69_13                       1.000000
X_70_23                       1.000000
X_71_23                       1.000000
X_72_15                       1.000000
X_73_12                       1.000000
X_74_6                        1.000000
X_75_8                        1.000000
X_76_12                       1.000000
X_77_28                       1.000000
X_78_18                       1.000000
X_79_28                       1.000000
X_80_3                        1.000000
X_81_16                       1.000000
X_82_2                        1.000000
X_83_1                        1.000000
X_84_18                       1.000000
X_85_6                        1.000000
X_86_21                       1.000000
X_87_30                       1.000000
X_88_15                       1.000000
X_89_26                       1.000000
X_90_29                       1.000000
X_91_25                       1.000000
X_92_25                       1.000000
X_93_8                        1.000000
X_94_11                       1.000000
X_95_13                       1.000000
X_96_20                       1.000000
X_97_24                       1.000000
X_98_16                       1.000000
X_99_3                        1.000000
X_100_19                      1.000000
All other variables in the range 1-3001 are 0.
